
  32    4
  10   10   10   10

   0   0   0   0   0   6 2 27 28 29 30 31 
   4   1   1   1   0   2 26 3 
   4   3   3   5   0   1 4 
   3   0   5   5   1   2 25 5 
   5   2   3   0   6   2 24 6 
   8   3   0   2   4   3 23 22 7 
   6   5   5   0   5   1 8 
   2   0   4   3   2   2 21 9 
   6   3   0   3   5   3 20 19 10 
   9   3   0   6   3   1 11 
   5   5   7   5   0   1 12 
   5   2   2   0   5   2 18 13 
  10   2   3   5   0   2 17 14 
   3   6   7   0   4   1 15 
   1   6   1   0   6   1 16 
   1   4   2   4   0   1 32
   2   4   3   0   3   1 32
   5   4   6   3   0   1 32
   8   2   0   3   4   1 32
   1   8   0   3   7   1 32
   5   0   7   4   5   1 32
  10   7   0   3   1   1 32
   2   9   7   6   0   1 32
   8   0   4   4   2   1 32
   3   0   4   5   6   1 32
   3   3   2   6   0   1 32
   3   4   0   3   3   1 32
   5   4   0   4   4   1 32
   5   4   3   3   0   1 32
   9   2   6   6   0   1 32
   4   0   3   4   4   1 32
   0   0   0   0   0   0 
